82560 215680 296961 211842 26243 66563 240643 90884 328965 21126 353287 349448 285449 50570 228490 171531 145932 132493 101134 360335 158096 15377 67858 225939 266259 395540 216341 118422 254103 207384 309145 353306 193947 309148 387229 360350 193311 312352 332193 150434 163875 389156 222757 407718 228519 178600 193322 273323 158124 330925 231726 76207 218288 304689 181170 336691 394932 330933 114614 37815 327735 67896 272696 361017 75578 178618 293820 387261 96702 346943 270784 61505 309186 387266 199107 59588 225988 150469 144070 248391 147912 158792 407753 346954 67275 173515 49996 336717 332878 290640 56401 144081 309842 266323 207444 132565 332246 362967 231769 147290 309851 246492 407774 231775 91616 331617 147938 82019 114659 125540 71141 332901 254182 270823 272747 291948 90989 92910 282990 76271 360432 351473 292594 218355 146036 338677 297080 321401 89722 321403 176124 355325 87806 208126 297087 218370 331011 211972 391813 215814 231175 98696 215816 132618 208139 332300 391821 101902 407823 233744 321426 141587 224148 318869 226070 361111 297112 308633 268955 144156 256797 316318 361119 144179 158259 171699 293939 318899 340019 391865 161476 266447 355421 389341 280548 402148 178790 309350 215915 209527 228727 340088 395772 209536 272908 248591 224275 349719 353559 395163 194222 228782 240943 240951 395191 218564 340165 233927 329287 271051 248657 308817 333137 329298 224341 233941 331228 227553 336993 256995 351715 338917 235881 328041 283242 283248 294128 332528 273656 290945 297345 305025 333185 354308 408068 310157 340241 321696 338980 337063 310186 285867 395318 316616 349896 354376 305097 331364 329448 361474 402438 392200 354462 360869 360873 402475 389687 
82560 215680 94081 296961 211842 26243 66563 240643 90884 328965 21126 353287 349448 285449 50570 228490 299531 145932 132493 101134 360335 158096 15377 67858 225939 266259 395540 216341 118422 254103 207384 309145 353306 193947 309148 387229 360350 193311 312352 332193 150434 163875 389156 298277 407718 228519 178600 193322 273323 158124 406445 231726 76207 218288 304689 181170 336691 394932 330933 114614 37815 327735 67896 272696 361017 75578 178618 293820 387261 96702 346943 270784 61505 309186 387266 199107 59588 225988 150469 144070 248391 147912 158792 407753 346954 67275 173515 49996 336717 332878 290640 56401 144081 309842 266323 207444 132565 332246 362967 231769 147290 309851 246492 407774 231775 91616 331617 147938 82019 114659 125540 71141 332901 254182 270823 272747 291948 90989 92910 282990 76271 360432 351473 292594 218355 146036 295157 297080 321401 89722 321403 176124 406525 87806 208126 297087 218370 331011 211972 391813 215814 231175 98696 215816 132618 208139 332300 391821 101902 407823 233744 321426 224148 298389 226070 361111 297112 308633 268955 144156 256797 316318 361119 144179 158259 293939 340019 391865 161476 266447 378465 280548 402148 178790 309350 215915 209527 228727 340088 395772 209536 298496 248591 224275 353559 395163 194222 228782 240943 240951 395191 218564 340165 233927 329287 271051 248657 308817 333137 329298 224341 233941 227553 336993 256995 351715 235881 328041 283242 283248 294128 332528 273656 290945 297345 305025 333185 354308 408068 310157 340241 295456 321696 354980 378660 337063 310186 285867 395318 299971 378691 316616 349896 354376 305097 310228 331364 329448 361474 402438 392200 354462 360869 378792 360873 363434 389687 
82560 215680 296961 353922 66563 240643 90884 328965 21126 353287 349448 334729 50570 228490 171531 145932 132493 218253 101134 360335 158096 334737 67858 206098 266259 395540 216341 118422 254103 207384 309145 353306 193947 309148 387229 360350 145951 312352 332193 150434 163875 389156 222757 407718 228519 178600 303400 129321 193322 273323 158124 330925 129326 76207 283568 304689 408370 336691 394932 330933 114614 37815 327735 272696 361017 75578 178618 293820 387261 283582 124223 270784 61505 309186 387266 199107 59588 225988 150469 144070 248391 147912 407753 346954 173515 49996 336717 332878 290640 56401 133841 309842 266323 207444 132565 332246 238807 238809 147290 309851 246492 332894 391775 242016 331617 147938 82019 114659 125540 332901 254182 270823 145385 272747 291948 90989 92910 282990 76271 360432 351473 292594 218355 146036 338677 124279 213880 321401 89722 321403 176124 355325 87806 208126 147967 297087 218370 331011 408452 391813 215814 231175 98696 215816 132618 208139 332300 391821 101902 407823 233744 321426 141587 224148 318869 226070 361111 297112 242073 268955 144156 256797 316318 361119 144179 158259 171699 293939 318899 340019 391865 303554 161476 303562 266447 146129 206289 213969 215889 355421 389341 213987 402148 178790 309350 215915 209527 228727 395772 209536 272908 248591 224275 349719 353559 194222 228782 240943 240951 395191 218564 340165 408645 233927 329287 283854 248657 333137 329298 224341 233941 331228 227553 336993 256995 351715 338917 235881 328041 283248 294128 332528 283893 273656 386936 319098 290945 297345 305025 333185 354308 408068 310157 340241 321696 338980 337063 310186 316616 349896 354376 305097 331364 329448 361474 402438 392200 387083 354462 360869 360873 402475 
82560 215680 94081 353922 66563 240643 90884 328965 21126 353287 349448 334729 50570 228490 299531 145932 132493 218253 101134 360335 158096 334737 67858 206098 266259 395540 216341 118422 254103 393624 309145 353306 193947 309148 387229 360350 193311 312352 332193 150434 163875 389156 222757 407718 228519 178600 393641 193322 273323 158124 330925 231726 76207 283568 304689 408370 336691 394932 330933 114614 37815 327735 272696 361017 75578 178618 293820 387261 283582 346943 270784 61505 309186 387266 199107 59588 225988 150469 144070 248391 147912 158792 407753 346954 173515 49996 336717 332878 290640 56401 133841 309842 266323 207444 132565 332246 238807 231769 147290 309851 246492 332894 231775 242016 331617 147938 82019 114659 125540 71141 332901 254182 270823 145385 272747 291948 90989 92910 282990 76271 360432 382193 292594 218355 146036 338677 213880 321401 89722 321403 176124 355325 87806 208126 147967 218370 331011 408452 391813 215814 231175 98696 215816 132618 208139 332300 391821 219022 407823 233744 321426 141587 224148 318869 226070 361111 144152 242073 268955 144156 256797 316318 361119 144179 293939 318899 340019 391865 161476 266447 146129 206289 213969 215889 355421 389341 378465 213987 402148 178790 309350 215915 209527 228727 340088 395772 209536 248591 224275 349719 353559 194222 228782 240943 240951 395191 218564 340165 408645 233927 329287 248657 333137 219218 329298 224341 233941 331228 227553 336993 256995 393955 338917 235881 328041 283242 283248 294128 332528 283893 382453 273656 386936 319098 290945 305025 333185 354308 408068 310157 340241 321696 338980 378660 337063 310186 382522 299971 378691 316616 349896 354376 305097 310228 331364 329448 361474 402438 392200 387083 354462 378792 360873 402475 
82560 215680 94081 296961 353922 66563 240643 90884 328965 21126 353287 349448 334729 50570 228490 299531 145932 132493 218253 101134 360335 158096 334737 67858 206098 266259 395540 216341 118422 254103 393624 309145 353306 193947 309148 387229 360350 145951 312352 332193 150434 163875 389156 222757 407718 228519 178600 393641 193322 273323 158124 406445 377006 298927 218288 304689 408370 336691 394932 330933 114614 37815 327735 272696 361017 75578 178618 293820 387261 96702 124223 270784 61505 309186 387266 199107 59588 225988 150469 144070 248391 147912 407753 346954 67275 348875 49996 336717 332878 290640 56401 133841 309842 266323 207444 132565 332246 362967 223449 147290 309851 246492 332894 391775 242016 331617 147938 82019 114659 125540 332901 254182 270823 272747 291948 90989 92910 298990 76271 360432 351473 292594 218355 146036 338677 124279 297080 321401 89722 321403 176124 406525 87806 208126 147967 297087 218370 331011 408452 391813 215814 231175 98696 215816 132618 208139 332300 391821 219022 407823 233744 321426 224148 318869 226070 361111 297112 242073 268955 144156 256797 316318 361119 144179 293939 318899 340019 391865 299074 161476 266447 146129 206289 215889 224213 226133 299093 222937 246617 360537 402148 178790 309350 215915 209527 228727 395772 209536 224275 349719 353559 377239 194222 228782 240943 240951 395191 218564 340165 408645 233927 329287 248657 333137 219218 329298 224341 233941 331228 248669 227553 336993 256995 351715 393955 338917 235881 328041 294128 332528 273656 386936 319098 290945 297345 305025 333185 354308 408068 310157 340241 321696 338980 354980 337063 310186 316616 349896 354376 305097 310228 331364 329448 361474 402438 392200 387083 354462 377505 360869 363434 389687 
82560 215680 334720 94081 353922 26243 66563 240643 90884 328965 21126 353287 349448 334729 50570 228490 299531 145932 132493 101134 360335 158096 334737 67858 206098 225939 266259 395540 216341 118422 254103 207384 309145 353306 193947 309148 387229 360350 145951 312352 332193 150434 163875 389156 222757 407718 228519 178600 193322 273323 158124 330925 231726 76207 283568 304689 408370 336691 394932 330933 114614 37815 327735 272696 361017 75578 178618 293820 387261 283582 346943 270784 61505 309186 387266 199107 59588 225988 150469 144070 248391 147912 158792 407753 346954 173515 49996 336717 332878 290640 56401 133841 309842 266323 207444 132565 332246 238807 231769 147290 309851 246492 407774 231775 91616 331617 147938 82019 114659 125540 71141 332901 254182 270823 145385 272747 291948 90989 92910 282990 76271 360432 351473 292594 218355 146036 338677 213880 321401 89722 321403 176124 355325 87806 208126 147967 218370 331011 408452 391813 215814 231175 98696 215816 132618 208139 332300 391821 101902 407823 233744 321426 141587 224148 318869 226070 361111 144152 308633 268955 144156 256797 316318 361119 144179 158259 293939 318899 340019 391865 161476 266447 146129 206289 213969 215889 355421 389341 213987 402148 178790 309350 215915 209527 228727 340088 395772 215934 299774 209536 248591 224275 349719 353559 194222 228782 240943 240951 395191 218564 340165 408645 233927 329287 283854 248657 308817 333137 329298 224341 233941 331228 227553 336993 256995 351715 338917 235881 328041 283242 283248 294128 332528 283893 273656 290945 305025 333185 354308 408068 310157 340241 321696 338980 337063 310186 316616 349896 354376 305097 310228 331364 329448 361474 402438 392200 354462 360869 360873 402475 
82560 215680 334720 94081 353922 66563 240643 90884 328965 21126 353287 349448 334729 50570 228490 299531 145932 132493 218893 101134 360335 158096 334737 67858 206098 266259 395540 216341 118422 254103 207384 309145 353306 193947 309148 387229 360350 193311 312352 332193 150434 163875 389156 222757 407718 228519 303400 129321 193322 273323 158124 330925 129326 298927 283568 304689 408370 336691 394932 330933 114614 37815 140215 272696 361017 75578 178618 293820 387261 283582 124223 270784 61505 387266 199107 59588 225988 150469 144070 248391 147912 158792 407753 346954 173515 49996 336717 332878 290640 56401 133841 309842 266323 207444 132565 332246 238807 238809 147290 309851 246492 332894 391775 359776 331617 147938 82019 114659 125540 332901 254182 270823 145385 272747 291948 90989 92910 298990 76271 360432 382193 292594 218355 146036 338677 124279 213880 229881 89722 321403 176124 355325 87806 208126 147967 218370 331011 408452 391813 215814 231175 98696 215816 132618 208139 332300 391821 219022 407823 233744 321426 141587 224148 318869 226070 361111 144152 308633 268955 144156 256797 316318 361119 144179 293299 293939 318899 340019 391865 299074 303554 161476 303562 266447 146129 206289 213969 215889 224213 226133 299093 180699 355421 389341 378465 180707 213987 402148 178790 309350 215915 209527 228727 340088 395772 209536 248591 224275 349719 353559 223002 194222 228782 240943 240951 395191 218564 340165 408645 233927 329287 283854 248657 308817 333137 219218 329298 224341 233941 331228 336993 338917 293479 387559 235881 294128 332528 283893 382453 273656 290945 305025 333185 354308 408068 310157 340241 321696 378660 337063 310186 316616 349896 354376 305097 310228 331364 329448 360178 361474 402438 392200 354462 378792 360873 402475 361522 
82560 215680 4481 94081 353922 26243 66563 240643 90884 328965 21126 353287 349448 334729 50570 228490 171531 145932 132493 218253 101134 360335 158096 334737 67858 206098 266259 395540 216341 118422 254103 207384 357145 353306 193947 309148 387229 360350 145951 312352 332193 150434 163875 389156 222757 407718 228519 178600 193322 273323 158124 406445 231726 76207 283568 304689 408370 336691 394932 330933 114614 37815 327735 272696 361017 75578 178618 293820 387261 283582 346943 270784 61505 309186 387266 199107 59588 225988 150469 144070 248391 147912 407753 346954 173515 49996 336717 332878 290640 56401 357201 309842 266323 207444 132565 332246 238807 362967 231769 147290 309851 246492 332894 231775 242016 331617 147938 82019 114659 125540 71141 332901 254182 270823 145385 272747 291948 90989 92910 282990 76271 360432 382193 292594 218355 146036 338677 213880 321401 89722 321403 176124 406525 87806 208126 147967 357247 218370 331011 408452 391813 215814 231175 98696 215816 132618 208139 332300 391821 101902 407823 233744 321426 224148 318869 226070 361111 144152 242073 268955 144156 256797 316318 361119 144179 158259 171699 293939 318899 340019 391865 161476 266447 146129 206289 213969 215889 213987 402148 178790 309350 215915 209527 228727 395772 209536 272908 248591 224275 349719 353559 194222 228782 240943 240951 395191 218564 340165 408645 233927 329287 283854 248657 333137 329298 224341 233941 331228 227553 336993 256995 338917 235881 328041 283242 283248 294128 332528 283893 382453 273656 386936 319098 290945 305025 333185 354308 408068 310157 340241 321696 338980 337063 310186 382522 316616 349896 354376 305097 331364 329448 361474 402438 392200 357643 387083 354462 360873 389687 
82560 215680 94081 353922 26243 66563 240643 90884 328965 21126 353287 349448 285449 50570 228490 171531 145932 218893 101134 360335 158096 15377 67858 206098 225939 266259 395540 216341 118422 254103 207384 309145 353306 193947 309148 387229 360350 193311 312352 332193 150434 163875 389156 222757 407718 228519 178600 193322 273323 158124 330925 320686 298927 283568 304689 408370 336691 394932 330933 114614 37815 327735 272696 361017 75578 178618 293820 387261 283582 124223 270784 61505 387266 199107 59588 225988 150469 144070 248391 147912 158792 407753 346954 173515 49996 336717 332878 290640 56401 133841 309842 266323 207444 132565 332246 238807 238809 147290 309851 246492 332894 391775 242016 331617 147938 82019 114659 125540 332901 254182 270823 145385 272747 291948 90989 92910 298990 76271 360432 382193 292594 218355 146036 338677 124279 213880 229881 89722 321403 176124 355325 87806 208126 147967 218370 331011 408452 391813 215814 231175 98696 215816 132618 208139 332300 391821 219022 407823 233744 321426 141587 224148 318869 226070 361111 144152 242073 268955 144156 256797 316318 361119 144179 158259 171699 293299 293939 340019 391865 299074 161476 266447 146129 206289 213969 215889 224213 226133 299093 355421 389341 213987 402148 178790 309350 215915 209527 228727 340088 395772 209536 272908 248591 224275 349719 353559 194222 228782 240943 240951 395191 218564 340165 408645 233927 329287 283854 248657 333137 219218 329298 224341 233941 246743 320983 331228 336993 338917 293479 320999 387559 235881 328041 294128 332528 283893 382453 273656 293498 319098 290945 305025 333185 354308 408068 310157 340241 321696 338980 337063 310186 285867 316616 349896 354376 305097 331364 329448 361474 402438 392200 354462 360873 402475 
82560 215680 85121 296961 353922 26243 66563 240643 90884 328965 21126 353287 349448 285449 50570 228490 299531 145932 132493 218893 101134 360335 158096 15377 67858 266259 395540 216341 118422 394263 207384 309145 353306 193947 309148 387229 360350 193311 312352 332193 150434 163875 389156 222757 407718 228519 178600 193322 273323 158124 330925 231726 298927 283568 304689 408370 336691 217652 330933 114614 37815 327735 67896 272696 361017 75578 178618 293820 387261 283582 124223 270784 61505 309186 387266 199107 59588 225988 150469 144070 248391 147912 158792 407753 346954 67275 173515 49996 336717 332878 290640 56401 144081 309842 266323 207444 132565 332246 238807 231769 147290 309851 246492 407774 231775 91616 331617 147938 82019 114659 125540 332901 197222 270823 272747 291948 90989 92910 282990 76271 360432 382193 292594 218355 146036 338677 124279 297080 321401 89722 321403 176124 355325 87806 208126 297087 218370 331011 408452 215814 231175 98696 215816 132618 208139 332300 312461 219022 407823 233744 321426 141587 224148 318869 226070 361111 297112 308633 268955 144156 256797 316318 361119 144179 158259 293939 318899 340019 160825 299074 161476 266447 224213 226133 299093 355421 389341 394468 402148 178790 309350 215915 209527 228727 340088 197371 395772 215934 299774 209536 248591 224275 349719 353559 194222 228782 240943 240951 218564 340165 408645 233927 329287 248657 308817 333137 219218 329298 381780 224341 233941 331228 336993 338917 235881 328041 283242 394605 283248 294128 332528 283893 382453 273656 290945 297345 305025 333185 354308 408068 340241 321696 338980 337063 310186 285867 382522 381894 316616 349896 354376 305097 310228 331364 329448 381928 361474 402438 354462 360873 402475 
